out/bwp_6_13_1_lp.out
35
0 0    5 1
0 2    1 7
2 2    3 7
4 2    5 7
0 26    5 27
0 28    5 29
0 8    4 12
0 13    4 17
1 18    5 22
1 30    5 34
0 23    1 24
4 24    5 25
2 23    3 25
